!   File created by MacMolPlt 7.7.3
 $CONTRL SCFTYP=rhf RUNTYP=ENERGY MAXIT=200 MULT=1 $END
 $contrl ispher=1 $end
 $contrl cctyp=ccsd(t) $end
 $SYSTEM mwords=1000 $END
 $BASIS GBASIS=ccq $END
 $SCF DIRSCF=.TRUE. $END
 $DATA
Title
C1
H 1.0 0.0 0.0 0.0
H 1.0 5.05 0.0 0.0
 $END
