!   File created by MacMolPlt 7.7.3
 $CONTRL SCFTYP=mcscf RUNTYP=ENERGY MAXIT=200 MULT=1 $END
 $contrl ispher=1 $end
 $contrl cityp=aldet $end
 $SYSTEM mwords=1000 $END
 $BASIS GBASIS=ccq $END
 $det  ncore=0 nact=2 nels=2 nstate=2 $end
 $cidet  ncore=0 nact=2 nels=2 nstate=2 $end
 $SCF DIRSCF=.TRUE. $END
 $DATA
Title
C1
H 1.0 0.0 0.0 0.0
H 1.0 4.55 0.0 0.0
 $END
